Route #1: 1 11 42 57 53 14 62 25 61 17 9 47 1
Route #2: 1 7 30 26 49 43 33 1
Route #3: 1 18 2 28 15 36 27 22 8 41 37 40 45 10 1
Route #4: 1 48 64 3 59 6 55 1
Route #5: 1 51 32 60 56 50 38 35 24 54 1
Route #6: 1 34 46 16 12 58 31 44 1
Route #7: 1 39 19 23 13 29 1
Route #8: 1 63 4 21 1
Route #9: 1 20 52 5 1
cost: 1588
